(set-logic HORN)
(declare-datatypes ((Nat_608 0)) (((Z_2135 ) (S_497 (unS_716 Nat_608)))))
(declare-fun diseqNat_608 (Nat_608 Nat_608) Bool)
(declare-fun unS_717 (Nat_608 Nat_608) Bool)
(declare-fun isZ_464 (Nat_608) Bool)
(declare-fun isS_464 (Nat_608) Bool)
(assert (forall ((x_56173 Nat_608))
	(unS_717 x_56173 (S_497 x_56173))))
(assert (isZ_464 Z_2135))
(assert (forall ((x_56175 Nat_608))
	(isS_464 (S_497 x_56175))))
(assert (forall ((x_56176 Nat_608))
	(diseqNat_608 Z_2135 (S_497 x_56176))))
(assert (forall ((x_56177 Nat_608))
	(diseqNat_608 (S_497 x_56177) Z_2135)))
(assert (forall ((x_56178 Nat_608) (x_56179 Nat_608))
	(=> (diseqNat_608 x_56178 x_56179)
	    (diseqNat_608 (S_497 x_56178) (S_497 x_56179)))))
(declare-fun add_384 (Nat_608 Nat_608 Nat_608) Bool)
(declare-fun minus_379 (Nat_608 Nat_608 Nat_608) Bool)
(declare-fun le_358 (Nat_608 Nat_608) Bool)
(declare-fun ge_358 (Nat_608 Nat_608) Bool)
(declare-fun lt_378 (Nat_608 Nat_608) Bool)
(declare-fun gt_361 (Nat_608 Nat_608) Bool)
(declare-fun mult_359 (Nat_608 Nat_608 Nat_608) Bool)
(declare-fun div_358 (Nat_608 Nat_608 Nat_608) Bool)
(declare-fun mod_360 (Nat_608 Nat_608 Nat_608) Bool)
(assert (forall ((y_2373 Nat_608))
	(add_384 y_2373 Z_2135 y_2373)))
(assert (forall ((x_56149 Nat_608) (y_2373 Nat_608) (r_431 Nat_608))
	(=> (add_384 r_431 x_56149 y_2373)
	    (add_384 (S_497 r_431) (S_497 x_56149) y_2373))))
(assert (forall ((y_2373 Nat_608))
	(minus_379 Z_2135 Z_2135 y_2373)))
(assert (forall ((x_56149 Nat_608) (y_2373 Nat_608) (r_431 Nat_608))
	(=> (minus_379 r_431 x_56149 y_2373)
	    (minus_379 (S_497 r_431) (S_497 x_56149) y_2373))))
(assert (forall ((y_2373 Nat_608))
	(le_358 Z_2135 y_2373)))
(assert (forall ((x_56149 Nat_608) (y_2373 Nat_608))
	(=> (le_358 x_56149 y_2373)
	    (le_358 (S_497 x_56149) (S_497 y_2373)))))
(assert (forall ((y_2373 Nat_608))
	(ge_358 y_2373 Z_2135)))
(assert (forall ((x_56149 Nat_608) (y_2373 Nat_608))
	(=> (ge_358 x_56149 y_2373)
	    (ge_358 (S_497 x_56149) (S_497 y_2373)))))
(assert (forall ((y_2373 Nat_608))
	(lt_378 Z_2135 (S_497 y_2373))))
(assert (forall ((x_56149 Nat_608) (y_2373 Nat_608))
	(=> (lt_378 x_56149 y_2373)
	    (lt_378 (S_497 x_56149) (S_497 y_2373)))))
(assert (forall ((y_2373 Nat_608))
	(gt_361 (S_497 y_2373) Z_2135)))
(assert (forall ((x_56149 Nat_608) (y_2373 Nat_608))
	(=> (gt_361 x_56149 y_2373)
	    (gt_361 (S_497 x_56149) (S_497 y_2373)))))
(assert (forall ((y_2373 Nat_608))
	(mult_359 Z_2135 Z_2135 y_2373)))
(assert (forall ((x_56149 Nat_608) (y_2373 Nat_608) (r_431 Nat_608) (z_2136 Nat_608))
	(=>	(and (mult_359 r_431 x_56149 y_2373)
			(add_384 z_2136 r_431 y_2373))
		(mult_359 z_2136 (S_497 x_56149) y_2373))))
(assert (forall ((x_56149 Nat_608) (y_2373 Nat_608))
	(=> (lt_378 x_56149 y_2373)
	    (div_358 Z_2135 x_56149 y_2373))))
(assert (forall ((x_56149 Nat_608) (y_2373 Nat_608) (r_431 Nat_608) (z_2136 Nat_608))
	(=>	(and (ge_358 x_56149 y_2373)
			(minus_379 z_2136 x_56149 y_2373)
			(div_358 r_431 z_2136 y_2373))
		(div_358 (S_497 r_431) x_56149 y_2373))))
(assert (forall ((x_56149 Nat_608) (y_2373 Nat_608))
	(=> (lt_378 x_56149 y_2373)
	    (mod_360 x_56149 x_56149 y_2373))))
(assert (forall ((x_56149 Nat_608) (y_2373 Nat_608) (r_431 Nat_608) (z_2136 Nat_608))
	(=>	(and (ge_358 x_56149 y_2373)
			(minus_379 z_2136 x_56149 y_2373)
			(mod_360 r_431 z_2136 y_2373))
		(mod_360 r_431 x_56149 y_2373))))
(declare-datatypes ((list_258 0)) (((nil_288 ) (cons_258 (head_516 Nat_608) (tail_516 list_258)))))
(declare-fun diseqlist_258 (list_258 list_258) Bool)
(declare-fun head_517 (Nat_608 list_258) Bool)
(declare-fun tail_517 (list_258 list_258) Bool)
(declare-fun isnil_288 (list_258) Bool)
(declare-fun iscons_258 (list_258) Bool)
(assert (forall ((x_56151 Nat_608) (x_56152 list_258))
	(head_517 x_56151 (cons_258 x_56151 x_56152))))
(assert (forall ((x_56151 Nat_608) (x_56152 list_258))
	(tail_517 x_56152 (cons_258 x_56151 x_56152))))
(assert (isnil_288 nil_288))
(assert (forall ((x_56154 Nat_608) (x_56155 list_258))
	(iscons_258 (cons_258 x_56154 x_56155))))
(assert (forall ((x_56156 Nat_608) (x_56157 list_258))
	(diseqlist_258 nil_288 (cons_258 x_56156 x_56157))))
(assert (forall ((x_56158 Nat_608) (x_56159 list_258))
	(diseqlist_258 (cons_258 x_56158 x_56159) nil_288)))
(assert (forall ((x_56160 Nat_608) (x_56161 list_258) (x_56162 Nat_608) (x_56163 list_258))
	(=> (diseqNat_608 x_56160 x_56162)
	    (diseqlist_258 (cons_258 x_56160 x_56161) (cons_258 x_56162 x_56163)))))
(assert (forall ((x_56160 Nat_608) (x_56161 list_258) (x_56162 Nat_608) (x_56163 list_258))
	(=> (diseqlist_258 x_56161 x_56163)
	    (diseqlist_258 (cons_258 x_56160 x_56161) (cons_258 x_56162 x_56163)))))
(declare-datatypes ((Nat_607 0)) (((Z_2132 ) (S_496 (projS_210 Nat_607)))))
(declare-fun diseqNat_607 (Nat_607 Nat_607) Bool)
(declare-fun projS_211 (Nat_607 Nat_607) Bool)
(declare-fun isZ_463 (Nat_607) Bool)
(declare-fun isS_463 (Nat_607) Bool)
(assert (forall ((x_56165 Nat_607))
	(projS_211 x_56165 (S_496 x_56165))))
(assert (isZ_463 Z_2132))
(assert (forall ((x_56167 Nat_607))
	(isS_463 (S_496 x_56167))))
(assert (forall ((x_56168 Nat_607))
	(diseqNat_607 Z_2132 (S_496 x_56168))))
(assert (forall ((x_56169 Nat_607))
	(diseqNat_607 (S_496 x_56169) Z_2132)))
(assert (forall ((x_56170 Nat_607) (x_56171 Nat_607))
	(=> (diseqNat_607 x_56170 x_56171)
	    (diseqNat_607 (S_496 x_56170) (S_496 x_56171)))))
(declare-fun qrev_4 (list_258 list_258 list_258) Bool)
(assert (forall ((x_56135 list_258) (z_2133 Nat_608) (xs_687 list_258) (y_2369 list_258))
	(=> (qrev_4 x_56135 xs_687 (cons_258 z_2133 y_2369))
	    (qrev_4 x_56135 (cons_258 z_2133 xs_687) y_2369))))
(assert (forall ((x_56137 list_258))
	(qrev_4 x_56137 nil_288 x_56137)))
(declare-fun length_51 (Nat_607 list_258) Bool)
(assert (forall ((x_56139 Nat_607) (y_2370 Nat_608) (xs_688 list_258))
	(=> (length_51 x_56139 xs_688)
	    (length_51 (S_496 x_56139) (cons_258 y_2370 xs_688)))))
(assert (length_51 Z_2132 nil_288))
(declare-fun x_56132 (Nat_607 Nat_607 Nat_607) Bool)
(assert (forall ((x_56142 Nat_607) (z_2134 Nat_607) (y_2371 Nat_607))
	(=> (x_56132 x_56142 z_2134 y_2371)
	    (x_56132 (S_496 x_56142) (S_496 z_2134) y_2371))))
(assert (forall ((x_56143 Nat_607))
	(x_56132 x_56143 Z_2132 x_56143)))
(assert (forall ((x_56144 list_258) (x_56145 Nat_607) (x_56146 Nat_607) (x_56147 Nat_607) (x_56148 Nat_607) (x_56134 list_258) (y_2372 list_258))
	(=>	(and true
			(diseqNat_607 x_56145 x_56148)
			(qrev_4 x_56144 x_56134 y_2372)
			(length_51 x_56145 x_56144)
			(length_51 x_56146 x_56134)
			(length_51 x_56147 y_2372)
			(x_56132 x_56148 x_56146 x_56147))
		false)))
(check-sat)
